20
19
0 52 31 135 25 137 123 117 15 62 43 65 152 47 10 51 165 164 95
5
0 114 59 139 153
14
0 110 78 161 66 119 111 154 7 21 133 128 170 199
8
0 116 126 182 145 16 89 33
5
0 131 112 132 175
13
0 84 30 106 108 74 82 70 55 151 177 195 4
16
0 144 159 63 19 54 185 41 134 24 142 102 113 97 57 140
9
0 190 79 160 124 61 71 87 147
8
0 39 76 34 172 149 181 194
2
0 173
10
0 197 5 53 184 138 129 38 27 37
12
0 26 192 127 166 163 20 101 69 75 93 94
5
0 158 23 198 6
14
0 120 105 148 13 35 56 73 107 141 68 188 130 179
10
0 122 64 150 167 49 85 136 104 42
12
0 14 12 176 46 156 186 180 1 22 143 90
11
0 146 157 29 67 168 88 40 58 2 72
20
0 11 92 162 3 100 191 98 18 118 91 9 174 196 44 32 99 155 80 96
13
0 45 109 17 48 189 178 193 121 169 83 125 86
13
0 171 28 183 36 60 8 77 81 50 187 115 103
